(set-info :smt-lib-version 2.6)
(set-logic UF)
(set-info :source |Benchmarks from the paper: "Extending Sledgehammer with SMT Solvers" by Jasmin Blanchette, Sascha Bohme, and Lawrence C. Paulson, CADE 2011.  Translated to SMT2 by Andrew Reynolds and Morgan Deters.|)
(set-info :category "industrial")
(set-info :status unknown)
(declare-sort S1 0)
(declare-sort S2 0)
(declare-sort S3 0)
(declare-sort S4 0)
(declare-sort S5 0)
(declare-sort S6 0)
(declare-sort S7 0)
(declare-sort S8 0)
(declare-sort S9 0)
(declare-sort S10 0)
(declare-sort S11 0)
(declare-sort S12 0)
(declare-sort S13 0)
(declare-sort S14 0)
(declare-sort S15 0)
(declare-sort S16 0)
(declare-sort S17 0)
(declare-sort S18 0)
(declare-sort S19 0)
(declare-sort S20 0)
(declare-sort S21 0)
(declare-sort S22 0)
(declare-sort S23 0)
(declare-sort S24 0)
(declare-sort S25 0)
(declare-sort S26 0)
(declare-sort S27 0)
(declare-sort S28 0)
(declare-fun f1 () S1)
(declare-fun f2 () S1)
(declare-fun f3 (S3 S2) S4)
(declare-fun f4 () S3)
(declare-fun f5 (S5 S4) S4)
(declare-fun f6 (S6 S4) S5)
(declare-fun f7 () S6)
(declare-fun f8 () S3)
(declare-fun f9 (S7 S2) S2)
(declare-fun f10 (S8 S2) S7)
(declare-fun f11 () S8)
(declare-fun f12 () S8)
(declare-fun f13 (S9 S10) S2)
(declare-fun f14 () S9)
(declare-fun f15 (S11 S10) S10)
(declare-fun f16 () S11)
(declare-fun f17 () S11)
(declare-fun f18 () S10)
(declare-fun f19 () S2)
(declare-fun f20 (S12 S4) S3)
(declare-fun f21 () S12)
(declare-fun f22 () S3)
(declare-fun f23 () S2)
(declare-fun f24 () S2)
(declare-fun f25 () S3)
(declare-fun f26 () S3)
(declare-fun f27 () S7)
(declare-fun f28 () S3)
(declare-fun f29 () S3)
(declare-fun f30 (S13 S2) S3)
(declare-fun f31 (S14 S3) S13)
(declare-fun f32 (S15 S2) S14)
(declare-fun f33 () S15)
(declare-fun f34 (S16 S17) S4)
(declare-fun f35 (S18 S3) S16)
(declare-fun f36 () S18)
(declare-fun f37 (S2 S2) S17)
(declare-fun f38 () S2)
(declare-fun f39 (S2 S2) S1)
(declare-fun f40 (S2 S2) S1)
(declare-fun f41 () S6)
(declare-fun f42 () S8)
(declare-fun f43 (S19 S2) S10)
(declare-fun f44 (S20 S10) S19)
(declare-fun f45 () S20)
(declare-fun f46 (S21 S10) S11)
(declare-fun f47 () S21)
(declare-fun f48 () S6)
(declare-fun f49 (S22 S10) S4)
(declare-fun f50 () S22)
(declare-fun f51 () S21)
(declare-fun f52 () S11)
(declare-fun f53 () S10)
(declare-fun f54 (S23 S3) S3)
(declare-fun f55 (S24 S2) S23)
(declare-fun f56 () S24)
(declare-fun f57 () S4)
(declare-fun f58 (S10 S10) S1)
(declare-fun f59 (S10 S10) S1)
(declare-fun f60 (S25 S17) S2)
(declare-fun f61 (S26 S7) S25)
(declare-fun f62 () S26)
(declare-fun f63 (S27 S17) S10)
(declare-fun f64 (S28 S19) S27)
(declare-fun f65 () S28)
(declare-fun f66 () S10)
(declare-fun f67 () S4)
(assert (not (= f1 f2)))
(assert (forall ((?v0 S2)) (let ((?v_0 (f10 f12 (f13 f14 (f15 f16 (f15 f17 f18)))))) (let ((?v_1 (f9 (f10 f11 (f9 ?v_0 ?v0)) f19))) (= (f3 f4 ?v0) (f5 (f6 f7 (f3 f8 ?v_1)) (f3 (f20 f21 (f3 f22 (f9 ?v_0 f23))) (f9 (f10 f12 f24) ?v_1))))))))
(assert (forall ((?v0 S2)) (let ((?v_0 (f10 f12 (f13 f14 (f15 f16 (f15 f17 f18)))))) (let ((?v_1 (f9 ?v_0 ?v0))) (= (f3 f25 ?v0) (f5 (f6 f7 (f3 f8 ?v_1)) (f3 (f20 f21 (f3 f22 (f9 ?v_0 f23))) (f9 (f10 f12 f24) ?v_1))))))))
(assert (forall ((?v0 S2)) (= (f3 f26 ?v0) (f5 (f6 f7 (f3 f8 (f9 f27 (f9 (f10 f12 (f13 f14 (f15 f16 (f15 f17 f18)))) ?v0)))) (f3 (f20 f21 (f3 (f20 f21 (f3 f22 f23)) f24)) ?v0)))))
(assert (forall ((?v0 S2)) (let ((?v_0 (f10 f12 (f13 f14 (f15 f16 (f15 f17 f18)))))) (let ((?v_1 (f9 ?v_0 ?v0))) (= (f3 f28 ?v0) (f5 (f6 f7 (f3 f8 (f9 f27 ?v_1))) (f3 (f20 f21 (f3 f22 (f9 ?v_0 f23))) (f9 (f10 f11 f24) (f9 (f10 f12 f24) ?v_1)))))))))
(assert (forall ((?v0 S2)) (= (f3 f29 ?v0) (f5 (f6 f7 (f3 f8 ?v0)) (f3 (f20 f21 (f3 f22 (f9 (f10 f12 (f13 f14 (f15 f16 (f15 f17 f18)))) f23))) (f9 (f10 f12 f24) ?v0))))))
(assert (forall ((?v0 S2) (?v1 S3) (?v2 S2) (?v3 S2)) (= (f3 (f30 (f31 (f32 f33 ?v0) ?v1) ?v2) ?v3) (f5 (f6 f7 (f3 ?v1 ?v3)) (f3 (f20 f21 (f3 f22 ?v0)) (f9 (f10 f12 ?v2) ?v3))))))
(assert (let ((?v_0 (f37 f38 f23))) (not (= (f34 (f35 f36 f28) ?v_0) (f5 (f6 f7 (f34 (f35 f36 f26) ?v_0)) (f3 (f20 f21 (f3 f22 (f9 (f10 f12 (f13 f14 (f15 f16 (f15 f17 f18)))) f23))) f24))))))
(assert (= (f39 f38 f23) f1))
(assert (= (f40 f23 f24) f1))
(assert (forall ((?v0 S2) (?v1 S2) (?v2 S2)) (let ((?v_0 (f10 f12 (f13 f14 (f15 f16 (f15 f17 f18))))) (?v_1 (f10 f12 ?v1))) (= (f3 (f20 f21 (f3 f22 (f9 ?v_0 ?v0))) (f9 ?v_1 (f9 ?v_0 ?v2))) (f3 (f20 f21 (f3 f22 ?v0)) (f9 ?v_1 ?v2))))))
(assert (forall ((?v0 S4) (?v1 S2)) (let ((?v_1 (f13 f14 (f15 f16 (f15 f17 f18)))) (?v_0 (f20 f21 ?v0))) (= (f3 ?v_0 (f9 f27 (f9 (f10 f12 ?v_1) ?v1))) (f5 (f6 f41 ?v0) (f3 (f20 f21 (f3 ?v_0 ?v1)) ?v_1))))))
(assert (forall ((?v0 S2) (?v1 S2)) (let ((?v_1 (f13 f14 (f15 f16 (f15 f17 f18)))) (?v_0 (f10 f42 ?v0))) (= (f9 ?v_0 (f9 f27 (f9 (f10 f12 ?v_1) ?v1))) (f9 (f10 f12 ?v0) (f9 (f10 f42 (f9 ?v_0 ?v1)) ?v_1))))))
(assert (forall ((?v0 S10) (?v1 S2)) (let ((?v_1 (f13 f14 (f15 f16 (f15 f17 f18)))) (?v_0 (f44 f45 ?v0))) (= (f43 ?v_0 (f9 f27 (f9 (f10 f12 ?v_1) ?v1))) (f15 (f46 f47 ?v0) (f43 (f44 f45 (f43 ?v_0 ?v1)) ?v_1))))))
(assert (forall ((?v0 S4) (?v1 S2)) (let ((?v_0 (f20 f21 ?v0))) (let ((?v_1 (f3 ?v_0 ?v1))) (= (f3 ?v_0 (f9 f27 (f9 (f10 f12 (f13 f14 (f15 f16 (f15 f17 f18)))) ?v1))) (f5 (f6 f41 ?v0) (f5 (f6 f41 ?v_1) ?v_1)))))))
(assert (forall ((?v0 S2) (?v1 S2)) (let ((?v_0 (f10 f42 ?v0))) (let ((?v_1 (f9 ?v_0 ?v1))) (= (f9 ?v_0 (f9 f27 (f9 (f10 f12 (f13 f14 (f15 f16 (f15 f17 f18)))) ?v1))) (f9 (f10 f12 ?v0) (f9 (f10 f12 ?v_1) ?v_1)))))))
(assert (forall ((?v0 S10) (?v1 S2)) (let ((?v_0 (f44 f45 ?v0))) (let ((?v_1 (f43 ?v_0 ?v1))) (= (f43 ?v_0 (f9 f27 (f9 (f10 f12 (f13 f14 (f15 f16 (f15 f17 f18)))) ?v1))) (f15 (f46 f47 ?v0) (f15 (f46 f47 ?v_1) ?v_1)))))))
(assert (forall ((?v0 S4) (?v1 S4)) (let ((?v_1 (f15 f16 (f15 f17 f18)))) (let ((?v_0 (f13 f14 ?v_1))) (= (f3 (f20 f21 (f5 (f6 f48 ?v0) ?v1)) ?v_0) (f5 (f6 f48 (f5 (f6 f48 (f3 (f20 f21 ?v0) ?v_0)) (f3 (f20 f21 ?v1) ?v_0))) (f5 (f6 f41 (f5 (f6 f41 (f49 f50 ?v_1)) ?v0)) ?v1)))))))
(assert (forall ((?v0 S2) (?v1 S2)) (let ((?v_0 (f13 f14 (f15 f16 (f15 f17 f18))))) (= (f9 (f10 f42 (f9 (f10 f11 ?v0) ?v1)) ?v_0) (f9 (f10 f11 (f9 (f10 f11 (f9 (f10 f42 ?v0) ?v_0)) (f9 (f10 f42 ?v1) ?v_0))) (f9 (f10 f12 (f9 (f10 f12 ?v_0) ?v0)) ?v1))))))
(assert (forall ((?v0 S10) (?v1 S10)) (let ((?v_1 (f15 f16 (f15 f17 f18)))) (let ((?v_0 (f13 f14 ?v_1))) (= (f43 (f44 f45 (f15 (f46 f51 ?v0) ?v1)) ?v_0) (f15 (f46 f51 (f15 (f46 f51 (f43 (f44 f45 ?v0) ?v_0)) (f43 (f44 f45 ?v1) ?v_0))) (f15 (f46 f47 (f15 (f46 f47 (f15 f52 ?v_1)) ?v0)) ?v1)))))))
(assert (forall ((?v0 S4) (?v1 S2)) (let ((?v_0 (f20 f21 ?v0))) (let ((?v_1 (f3 ?v_0 ?v1))) (= (f3 ?v_0 (f9 (f10 f12 (f13 f14 (f15 f16 (f15 f17 f18)))) ?v1)) (f5 (f6 f41 ?v_1) ?v_1))))))
(assert (forall ((?v0 S2) (?v1 S2)) (let ((?v_0 (f10 f42 ?v0))) (let ((?v_1 (f9 ?v_0 ?v1))) (= (f9 ?v_0 (f9 (f10 f12 (f13 f14 (f15 f16 (f15 f17 f18)))) ?v1)) (f9 (f10 f12 ?v_1) ?v_1))))))
(assert (forall ((?v0 S10) (?v1 S2)) (let ((?v_0 (f44 f45 ?v0))) (let ((?v_1 (f43 ?v_0 ?v1))) (= (f43 ?v_0 (f9 (f10 f12 (f13 f14 (f15 f16 (f15 f17 f18)))) ?v1)) (f15 (f46 f47 ?v_1) ?v_1))))))
(assert (forall ((?v0 S10)) (let ((?v_0 (f49 f50 ?v0))) (= (f3 (f20 f21 ?v_0) (f13 f14 (f15 f16 (f15 f17 f18)))) (f5 (f6 f41 ?v_0) ?v_0)))))
(assert (forall ((?v0 S10)) (let ((?v_0 (f13 f14 ?v0))) (= (f9 (f10 f42 ?v_0) (f13 f14 (f15 f16 (f15 f17 f18)))) (f9 (f10 f12 ?v_0) ?v_0)))))
(assert (forall ((?v0 S10)) (let ((?v_0 (f15 f52 ?v0))) (= (f43 (f44 f45 ?v_0) (f13 f14 (f15 f16 (f15 f17 f18)))) (f15 (f46 f47 ?v_0) ?v_0)))))
(assert (forall ((?v0 S10) (?v1 S10)) (let ((?v_0 (f13 f14 (f15 f16 (f15 f17 f18))))) (= (= (f15 (f46 f51 (f43 (f44 f45 ?v0) ?v_0)) (f43 (f44 f45 ?v1) ?v_0)) f53) (and (= ?v0 f53) (= ?v1 f53))))))
(assert (forall ((?v0 S2) (?v1 S3) (?v2 S2)) (= (f3 (f54 (f55 f56 ?v0) ?v1) ?v2) (f34 (f35 f36 (f30 (f31 (f32 f33 ?v0) ?v1) ?v2)) (f37 f38 ?v0)))))
(assert (forall ((?v0 S2)) (= (f9 (f10 f12 ?v0) (f13 f14 (f15 f16 (f15 f17 f18)))) (f9 (f10 f11 ?v0) ?v0))))
(assert (forall ((?v0 S2)) (= (f9 (f10 f12 (f13 f14 (f15 f16 (f15 f17 f18)))) ?v0) (f9 (f10 f11 ?v0) ?v0))))
(assert (forall ((?v0 S4) (?v1 S2)) (let ((?v_1 (f13 f14 (f15 f16 (f15 f17 f18)))) (?v_0 (f20 f21 ?v0))) (= (f3 ?v_0 (f9 (f10 f12 ?v_1) ?v1)) (f3 (f20 f21 (f3 ?v_0 ?v1)) ?v_1)))))
(assert (forall ((?v0 S2) (?v1 S2)) (let ((?v_1 (f13 f14 (f15 f16 (f15 f17 f18)))) (?v_0 (f10 f42 ?v0))) (= (f9 ?v_0 (f9 (f10 f12 ?v_1) ?v1)) (f9 (f10 f42 (f9 ?v_0 ?v1)) ?v_1)))))
(assert (forall ((?v0 S10) (?v1 S2)) (let ((?v_1 (f13 f14 (f15 f16 (f15 f17 f18)))) (?v_0 (f44 f45 ?v0))) (= (f43 ?v_0 (f9 (f10 f12 ?v_1) ?v1)) (f43 (f44 f45 (f43 ?v_0 ?v1)) ?v_1)))))
(assert (forall ((?v0 S2)) (= (f9 (f10 f11 ?v0) (f13 f14 (f15 f16 (f15 f17 f18)))) (f9 f27 (f9 f27 ?v0)))))
(assert (forall ((?v0 S2)) (= (f9 (f10 f11 (f13 f14 (f15 f16 (f15 f17 f18)))) ?v0) (f9 f27 (f9 f27 ?v0)))))
(assert (forall ((?v0 S2)) (not (= (f3 f22 ?v0) f57))))
(assert (forall ((?v0 S10) (?v1 S10)) (= (= (f58 f53 (f15 (f46 f51 (f15 (f46 f47 ?v0) ?v0)) (f15 (f46 f47 ?v1) ?v1))) f1) (or (not (= ?v0 f53)) (not (= ?v1 f53))))))
(assert (forall ((?v0 S10) (?v1 S10)) (not (= (f58 (f15 (f46 f51 (f15 (f46 f47 ?v0) ?v0)) (f15 (f46 f47 ?v1) ?v1)) f53) f1))))
(assert (forall ((?v0 S10) (?v1 S10)) (= (= (f59 (f15 (f46 f51 (f15 (f46 f47 ?v0) ?v0)) (f15 (f46 f47 ?v1) ?v1)) f53) f1) (and (= ?v0 f53) (= ?v1 f53)))))
(assert (forall ((?v0 S10) (?v1 S10)) (= (f59 f53 (f15 (f46 f51 (f15 (f46 f47 ?v0) ?v0)) (f15 (f46 f47 ?v1) ?v1))) f1)))
(assert (forall ((?v0 S10) (?v1 S10)) (let ((?v_0 (f13 f14 (f15 f16 (f15 f17 f18))))) (=> (= (f58 (f43 (f44 f45 ?v0) ?v_0) (f43 (f44 f45 ?v1) ?v_0)) f1) (=> (= (f59 f53 ?v1) f1) (= (f58 ?v0 ?v1) f1))))))
(assert (forall ((?v0 S2) (?v1 S2)) (let ((?v_0 (f13 f14 (f15 f16 (f15 f17 f18))))) (=> (= (f39 (f9 (f10 f42 ?v0) ?v_0) (f9 (f10 f42 ?v1) ?v_0)) f1) (=> (= (f40 f38 ?v1) f1) (= (f39 ?v0 ?v1) f1))))))
(assert (forall ((?v0 S2) (?v1 S2) (?v2 S2) (?v3 S2)) (let ((?v_0 (f10 f12 ?v0))) (= (f9 (f10 f12 (f9 ?v_0 ?v1)) (f9 (f10 f12 ?v2) ?v3)) (f9 (f10 f12 (f9 ?v_0 ?v2)) (f9 (f10 f12 ?v1) ?v3))))))
(assert (forall ((?v0 S4) (?v1 S4) (?v2 S4) (?v3 S4)) (let ((?v_0 (f6 f41 ?v0))) (= (f5 (f6 f41 (f5 ?v_0 ?v1)) (f5 (f6 f41 ?v2) ?v3)) (f5 (f6 f41 (f5 ?v_0 ?v2)) (f5 (f6 f41 ?v1) ?v3))))))
(assert (forall ((?v0 S10) (?v1 S10) (?v2 S10) (?v3 S10)) (let ((?v_0 (f46 f47 ?v0))) (= (f15 (f46 f47 (f15 ?v_0 ?v1)) (f15 (f46 f47 ?v2) ?v3)) (f15 (f46 f47 (f15 ?v_0 ?v2)) (f15 (f46 f47 ?v1) ?v3))))))
(assert (forall ((?v0 S2) (?v1 S2) (?v2 S2) (?v3 S2)) (let ((?v_1 (f10 f12 (f9 (f10 f12 ?v0) ?v1))) (?v_0 (f10 f12 ?v2))) (= (f9 ?v_1 (f9 ?v_0 ?v3)) (f9 ?v_0 (f9 ?v_1 ?v3))))))
(assert (forall ((?v0 S4) (?v1 S4) (?v2 S4) (?v3 S4)) (let ((?v_1 (f6 f41 (f5 (f6 f41 ?v0) ?v1))) (?v_0 (f6 f41 ?v2))) (= (f5 ?v_1 (f5 ?v_0 ?v3)) (f5 ?v_0 (f5 ?v_1 ?v3))))))
(assert (forall ((?v0 S10) (?v1 S10) (?v2 S10) (?v3 S10)) (let ((?v_1 (f46 f47 (f15 (f46 f47 ?v0) ?v1))) (?v_0 (f46 f47 ?v2))) (= (f15 ?v_1 (f15 ?v_0 ?v3)) (f15 ?v_0 (f15 ?v_1 ?v3))))))
(assert (forall ((?v0 S2) (?v1 S2) (?v2 S2) (?v3 S2)) (let ((?v_0 (f10 f12 ?v0)) (?v_1 (f9 (f10 f12 ?v2) ?v3))) (= (f9 (f10 f12 (f9 ?v_0 ?v1)) ?v_1) (f9 ?v_0 (f9 (f10 f12 ?v1) ?v_1))))))
(assert (forall ((?v0 S4) (?v1 S4) (?v2 S4) (?v3 S4)) (let ((?v_0 (f6 f41 ?v0)) (?v_1 (f5 (f6 f41 ?v2) ?v3))) (= (f5 (f6 f41 (f5 ?v_0 ?v1)) ?v_1) (f5 ?v_0 (f5 (f6 f41 ?v1) ?v_1))))))
(assert (forall ((?v0 S10) (?v1 S10) (?v2 S10) (?v3 S10)) (let ((?v_0 (f46 f47 ?v0)) (?v_1 (f15 (f46 f47 ?v2) ?v3))) (= (f15 (f46 f47 (f15 ?v_0 ?v1)) ?v_1) (f15 ?v_0 (f15 (f46 f47 ?v1) ?v_1))))))
(assert (forall ((?v0 S2) (?v1 S2) (?v2 S2)) (let ((?v_0 (f10 f12 ?v0))) (= (f9 (f10 f12 (f9 ?v_0 ?v1)) ?v2) (f9 (f10 f12 (f9 ?v_0 ?v2)) ?v1)))))
(assert (forall ((?v0 S4) (?v1 S4) (?v2 S4)) (let ((?v_0 (f6 f41 ?v0))) (= (f5 (f6 f41 (f5 ?v_0 ?v1)) ?v2) (f5 (f6 f41 (f5 ?v_0 ?v2)) ?v1)))))
(assert (forall ((?v0 S10) (?v1 S10) (?v2 S10)) (let ((?v_0 (f46 f47 ?v0))) (= (f15 (f46 f47 (f15 ?v_0 ?v1)) ?v2) (f15 (f46 f47 (f15 ?v_0 ?v2)) ?v1)))))
(assert (forall ((?v0 S2) (?v1 S2) (?v2 S2)) (let ((?v_0 (f10 f12 ?v0))) (= (f9 (f10 f12 (f9 ?v_0 ?v1)) ?v2) (f9 ?v_0 (f9 (f10 f12 ?v1) ?v2))))))
(assert (forall ((?v0 S4) (?v1 S4) (?v2 S4)) (let ((?v_0 (f6 f41 ?v0))) (= (f5 (f6 f41 (f5 ?v_0 ?v1)) ?v2) (f5 ?v_0 (f5 (f6 f41 ?v1) ?v2))))))
(assert (forall ((?v0 S10) (?v1 S10) (?v2 S10)) (let ((?v_0 (f46 f47 ?v0))) (= (f15 (f46 f47 (f15 ?v_0 ?v1)) ?v2) (f15 ?v_0 (f15 (f46 f47 ?v1) ?v2))))))
(assert (forall ((?v0 S2) (?v1 S2) (?v2 S2)) (let ((?v_0 (f10 f12 ?v0))) (= (f9 ?v_0 (f9 (f10 f12 ?v1) ?v2)) (f9 (f10 f12 (f9 ?v_0 ?v1)) ?v2)))))
(assert (forall ((?v0 S4) (?v1 S4) (?v2 S4)) (let ((?v_0 (f6 f41 ?v0))) (= (f5 ?v_0 (f5 (f6 f41 ?v1) ?v2)) (f5 (f6 f41 (f5 ?v_0 ?v1)) ?v2)))))
(assert (forall ((?v0 S10) (?v1 S10) (?v2 S10)) (let ((?v_0 (f46 f47 ?v0))) (= (f15 ?v_0 (f15 (f46 f47 ?v1) ?v2)) (f15 (f46 f47 (f15 ?v_0 ?v1)) ?v2)))))
(assert (forall ((?v0 S2) (?v1 S2) (?v2 S2)) (let ((?v_1 (f10 f12 ?v0)) (?v_0 (f10 f12 ?v1))) (= (f9 ?v_1 (f9 ?v_0 ?v2)) (f9 ?v_0 (f9 ?v_1 ?v2))))))
(assert (forall ((?v0 S4) (?v1 S4) (?v2 S4)) (let ((?v_1 (f6 f41 ?v0)) (?v_0 (f6 f41 ?v1))) (= (f5 ?v_1 (f5 ?v_0 ?v2)) (f5 ?v_0 (f5 ?v_1 ?v2))))))
(assert (forall ((?v0 S10) (?v1 S10) (?v2 S10)) (let ((?v_1 (f46 f47 ?v0)) (?v_0 (f46 f47 ?v1))) (= (f15 ?v_1 (f15 ?v_0 ?v2)) (f15 ?v_0 (f15 ?v_1 ?v2))))))
(assert (forall ((?v0 S2) (?v1 S2)) (= (f9 (f10 f12 ?v0) ?v1) (f9 (f10 f12 ?v1) ?v0))))
(assert (forall ((?v0 S4) (?v1 S4)) (= (f5 (f6 f41 ?v0) ?v1) (f5 (f6 f41 ?v1) ?v0))))
(assert (forall ((?v0 S10) (?v1 S10)) (= (f15 (f46 f47 ?v0) ?v1) (f15 (f46 f47 ?v1) ?v0))))
(assert (forall ((?v0 S2) (?v1 S2)) (=> (= (f39 f38 ?v0) f1) (=> (= (f39 ?v0 ?v1) f1) (= (f34 (f35 f36 (f20 f21 (f3 (f20 f21 (f3 f22 ?v1)) ?v0))) (f37 f38 ?v1)) f57)))))
(assert (forall ((?v0 S4) (?v1 S4) (?v2 S4) (?v3 S4)) (let ((?v_0 (f6 f48 ?v0))) (= (f5 (f6 f48 (f5 ?v_0 ?v1)) (f5 (f6 f48 ?v2) ?v3)) (f5 (f6 f48 (f5 ?v_0 ?v2)) (f5 (f6 f48 ?v1) ?v3))))))
(assert (forall ((?v0 S2) (?v1 S2) (?v2 S2) (?v3 S2)) (let ((?v_0 (f10 f11 ?v0))) (= (f9 (f10 f11 (f9 ?v_0 ?v1)) (f9 (f10 f11 ?v2) ?v3)) (f9 (f10 f11 (f9 ?v_0 ?v2)) (f9 (f10 f11 ?v1) ?v3))))))
(assert (forall ((?v0 S10) (?v1 S10) (?v2 S10) (?v3 S10)) (let ((?v_0 (f46 f51 ?v0))) (= (f15 (f46 f51 (f15 ?v_0 ?v1)) (f15 (f46 f51 ?v2) ?v3)) (f15 (f46 f51 (f15 ?v_0 ?v2)) (f15 (f46 f51 ?v1) ?v3))))))
(assert (forall ((?v0 S4) (?v1 S4) (?v2 S4)) (let ((?v_0 (f6 f48 ?v0))) (= (f5 (f6 f48 (f5 ?v_0 ?v1)) ?v2) (f5 (f6 f48 (f5 ?v_0 ?v2)) ?v1)))))
(assert (forall ((?v0 S2) (?v1 S2) (?v2 S2)) (let ((?v_0 (f10 f11 ?v0))) (= (f9 (f10 f11 (f9 ?v_0 ?v1)) ?v2) (f9 (f10 f11 (f9 ?v_0 ?v2)) ?v1)))))
(assert (forall ((?v0 S10) (?v1 S10) (?v2 S10)) (let ((?v_0 (f46 f51 ?v0))) (= (f15 (f46 f51 (f15 ?v_0 ?v1)) ?v2) (f15 (f46 f51 (f15 ?v_0 ?v2)) ?v1)))))
(assert (forall ((?v0 S4) (?v1 S4) (?v2 S4)) (let ((?v_0 (f6 f48 ?v0))) (= (f5 (f6 f48 (f5 ?v_0 ?v1)) ?v2) (f5 ?v_0 (f5 (f6 f48 ?v1) ?v2))))))
(assert (forall ((?v0 S2) (?v1 S2) (?v2 S2)) (let ((?v_0 (f10 f11 ?v0))) (= (f9 (f10 f11 (f9 ?v_0 ?v1)) ?v2) (f9 ?v_0 (f9 (f10 f11 ?v1) ?v2))))))
(assert (forall ((?v0 S10) (?v1 S10) (?v2 S10)) (let ((?v_0 (f46 f51 ?v0))) (= (f15 (f46 f51 (f15 ?v_0 ?v1)) ?v2) (f15 ?v_0 (f15 (f46 f51 ?v1) ?v2))))))
(assert (forall ((?v0 S4) (?v1 S4) (?v2 S4)) (let ((?v_0 (f6 f48 ?v0))) (= (f5 ?v_0 (f5 (f6 f48 ?v1) ?v2)) (f5 (f6 f48 (f5 ?v_0 ?v1)) ?v2)))))
(assert (forall ((?v0 S2) (?v1 S2) (?v2 S2)) (let ((?v_0 (f10 f11 ?v0))) (= (f9 ?v_0 (f9 (f10 f11 ?v1) ?v2)) (f9 (f10 f11 (f9 ?v_0 ?v1)) ?v2)))))
(assert (forall ((?v0 S10) (?v1 S10) (?v2 S10)) (let ((?v_0 (f46 f51 ?v0))) (= (f15 ?v_0 (f15 (f46 f51 ?v1) ?v2)) (f15 (f46 f51 (f15 ?v_0 ?v1)) ?v2)))))
(assert (forall ((?v0 S4) (?v1 S4) (?v2 S4)) (let ((?v_1 (f6 f48 ?v0)) (?v_0 (f6 f48 ?v1))) (= (f5 ?v_1 (f5 ?v_0 ?v2)) (f5 ?v_0 (f5 ?v_1 ?v2))))))
(assert (forall ((?v0 S2) (?v1 S2) (?v2 S2)) (let ((?v_1 (f10 f11 ?v0)) (?v_0 (f10 f11 ?v1))) (= (f9 ?v_1 (f9 ?v_0 ?v2)) (f9 ?v_0 (f9 ?v_1 ?v2))))))
(assert (forall ((?v0 S10) (?v1 S10) (?v2 S10)) (let ((?v_1 (f46 f51 ?v0)) (?v_0 (f46 f51 ?v1))) (= (f15 ?v_1 (f15 ?v_0 ?v2)) (f15 ?v_0 (f15 ?v_1 ?v2))))))
(assert (forall ((?v0 S4) (?v1 S4)) (= (f5 (f6 f48 ?v0) ?v1) (f5 (f6 f48 ?v1) ?v0))))
(assert (forall ((?v0 S2) (?v1 S2)) (= (f9 (f10 f11 ?v0) ?v1) (f9 (f10 f11 ?v1) ?v0))))
(assert (forall ((?v0 S10) (?v1 S10)) (= (f15 (f46 f51 ?v0) ?v1) (f15 (f46 f51 ?v1) ?v0))))
(assert (forall ((?v0 S10)) (= (= (f58 f53 (f43 (f44 f45 ?v0) (f13 f14 (f15 f16 (f15 f17 f18))))) f1) (not (= ?v0 f53)))))
(assert (forall ((?v0 S10)) (not (= (f58 (f43 (f44 f45 ?v0) (f13 f14 (f15 f16 (f15 f17 f18)))) f53) f1))))
(assert (forall ((?v0 S10) (?v1 S10)) (let ((?v_0 (f13 f14 (f15 f16 (f15 f17 f18))))) (=> (= (f43 (f44 f45 ?v0) ?v_0) (f43 (f44 f45 ?v1) ?v_0)) (=> (= (f59 f53 ?v0) f1) (=> (= (f59 f53 ?v1) f1) (= ?v0 ?v1)))))))
(assert (forall ((?v0 S2) (?v1 S2)) (let ((?v_0 (f13 f14 (f15 f16 (f15 f17 f18))))) (=> (= (f9 (f10 f42 ?v0) ?v_0) (f9 (f10 f42 ?v1) ?v_0)) (=> (= (f40 f38 ?v0) f1) (=> (= (f40 f38 ?v1) f1) (= ?v0 ?v1)))))))
(assert (forall ((?v0 S10) (?v1 S10)) (let ((?v_0 (f13 f14 (f15 f16 (f15 f17 f18))))) (=> (= (f59 (f43 (f44 f45 ?v0) ?v_0) (f43 (f44 f45 ?v1) ?v_0)) f1) (=> (= (f59 f53 ?v1) f1) (= (f59 ?v0 ?v1) f1))))))
(assert (forall ((?v0 S2) (?v1 S2)) (let ((?v_0 (f13 f14 (f15 f16 (f15 f17 f18))))) (=> (= (f40 (f9 (f10 f42 ?v0) ?v_0) (f9 (f10 f42 ?v1) ?v_0)) f1) (=> (= (f40 f38 ?v1) f1) (= (f40 ?v0 ?v1) f1))))))
(assert (forall ((?v0 S10)) (= (f59 f53 (f43 (f44 f45 ?v0) (f13 f14 (f15 f16 (f15 f17 f18))))) f1)))
(assert (forall ((?v0 S2)) (=> (= (f39 ?v0 (f13 f14 (f15 f16 (f15 f17 f18)))) f1) (or (= ?v0 f38) (= ?v0 (f9 f27 f38))))))
(assert (forall ((?v0 S2) (?v1 S2) (?v2 S2)) (let ((?v_0 (f10 f12 ?v0))) (=> (= (f39 f38 ?v0) f1) (= (f3 (f20 f21 (f3 f22 (f9 ?v_0 ?v1))) (f9 ?v_0 ?v2)) (f3 (f20 f21 (f3 f22 ?v1)) ?v2))))))
(assert (forall ((?v0 S10) (?v1 S10)) (let ((?v_0 (f13 f14 (f15 f16 (f15 f17 f18))))) (= (= (f58 f53 (f15 (f46 f51 (f43 (f44 f45 ?v0) ?v_0)) (f43 (f44 f45 ?v1) ?v_0))) f1) (or (not (= ?v0 f53)) (not (= ?v1 f53)))))))
(assert (forall ((?v0 S10) (?v1 S10)) (let ((?v_0 (f13 f14 (f15 f16 (f15 f17 f18))))) (not (= (f58 (f15 (f46 f51 (f43 (f44 f45 ?v0) ?v_0)) (f43 (f44 f45 ?v1) ?v_0)) f53) f1)))))
(assert (forall ((?v0 S10) (?v1 S10)) (let ((?v_0 (f13 f14 (f15 f16 (f15 f17 f18))))) (= (= (f59 (f15 (f46 f51 (f43 (f44 f45 ?v0) ?v_0)) (f43 (f44 f45 ?v1) ?v_0)) f53) f1) (and (= ?v0 f53) (= ?v1 f53))))))
(assert (forall ((?v0 S10) (?v1 S10)) (let ((?v_0 (f13 f14 (f15 f16 (f15 f17 f18))))) (= (f59 f53 (f15 (f46 f51 (f43 (f44 f45 ?v0) ?v_0)) (f43 (f44 f45 ?v1) ?v_0))) f1))))
(assert (forall ((?v0 S10) (?v1 S2)) (= (f59 f53 (f43 (f44 f45 ?v0) (f9 (f10 f12 (f13 f14 (f15 f16 (f15 f17 f18)))) ?v1))) f1)))
(assert (forall ((?v0 S10) (?v1 S2)) (=> (= (f58 ?v0 f53) f1) (= (f58 (f43 (f44 f45 ?v0) (f9 f27 (f9 (f10 f12 (f13 f14 (f15 f16 (f15 f17 f18)))) ?v1))) f53) f1))))
(assert (forall ((?v0 S10) (?v1 S2)) (=> (= (f59 f53 (f43 (f44 f45 ?v0) (f9 f27 (f9 (f10 f12 (f13 f14 (f15 f16 (f15 f17 f18)))) ?v1)))) f1) (= (f59 f53 ?v0) f1))))
(assert (forall ((?v0 S4)) (= (f5 (f6 f41 ?v0) f57) f57)))
(assert (forall ((?v0 S10)) (= (f15 (f46 f47 ?v0) f53) f53)))
(assert (forall ((?v0 S2)) (= (f9 (f10 f12 ?v0) f38) f38)))
(assert (forall ((?v0 S4)) (= (f5 (f6 f41 f57) ?v0) f57)))
(assert (forall ((?v0 S10)) (= (f15 (f46 f47 f53) ?v0) f53)))
(assert (forall ((?v0 S2)) (= (f9 (f10 f12 f38) ?v0) f38)))
(assert (forall ((?v0 S4) (?v1 S4)) (= (= ?v0 (f5 (f6 f48 ?v0) ?v1)) (= ?v1 f57))))
(assert (forall ((?v0 S2) (?v1 S2)) (= (= ?v0 (f9 (f10 f11 ?v0) ?v1)) (= ?v1 f38))))
(assert (forall ((?v0 S10) (?v1 S10)) (= (= ?v0 (f15 (f46 f51 ?v0) ?v1)) (= ?v1 f53))))
(assert (forall ((?v0 S4)) (= (f5 (f6 f48 ?v0) f57) ?v0)))
(assert (forall ((?v0 S2)) (= (f9 (f10 f11 ?v0) f38) ?v0)))
(assert (forall ((?v0 S10)) (= (f15 (f46 f51 ?v0) f53) ?v0)))
(assert (forall ((?v0 S4)) (= (f5 (f6 f48 f57) ?v0) ?v0)))
(assert (forall ((?v0 S2)) (= (f9 (f10 f11 f38) ?v0) ?v0)))
(assert (forall ((?v0 S10)) (= (f15 (f46 f51 f53) ?v0) ?v0)))
(assert (forall ((?v0 S4) (?v1 S4) (?v2 S4) (?v3 S4)) (let ((?v_0 (f6 f41 ?v0)) (?v_1 (f6 f41 ?v2))) (= (= (f5 (f6 f48 (f5 ?v_0 ?v1)) (f5 ?v_1 ?v3)) (f5 (f6 f48 (f5 ?v_0 ?v3)) (f5 ?v_1 ?v1))) (or (= ?v0 ?v2) (= ?v1 ?v3))))))
(assert (forall ((?v0 S2) (?v1 S2) (?v2 S2) (?v3 S2)) (let ((?v_0 (f10 f12 ?v0)) (?v_1 (f10 f12 ?v2))) (= (= (f9 (f10 f11 (f9 ?v_0 ?v1)) (f9 ?v_1 ?v3)) (f9 (f10 f11 (f9 ?v_0 ?v3)) (f9 ?v_1 ?v1))) (or (= ?v0 ?v2) (= ?v1 ?v3))))))
(assert (forall ((?v0 S10) (?v1 S10) (?v2 S10) (?v3 S10)) (let ((?v_0 (f46 f47 ?v0)) (?v_1 (f46 f47 ?v2))) (= (= (f15 (f46 f51 (f15 ?v_0 ?v1)) (f15 ?v_1 ?v3)) (f15 (f46 f51 (f15 ?v_0 ?v3)) (f15 ?v_1 ?v1))) (or (= ?v0 ?v2) (= ?v1 ?v3))))))
(assert (forall ((?v0 S4) (?v1 S4) (?v2 S4)) (= (f5 (f6 f48 (f5 (f6 f41 ?v0) ?v1)) (f5 (f6 f41 ?v2) ?v1)) (f5 (f6 f41 (f5 (f6 f48 ?v0) ?v2)) ?v1))))
(assert (forall ((?v0 S2) (?v1 S2) (?v2 S2)) (= (f9 (f10 f11 (f9 (f10 f12 ?v0) ?v1)) (f9 (f10 f12 ?v2) ?v1)) (f9 (f10 f12 (f9 (f10 f11 ?v0) ?v2)) ?v1))))
(assert (forall ((?v0 S10) (?v1 S10) (?v2 S10)) (= (f15 (f46 f51 (f15 (f46 f47 ?v0) ?v1)) (f15 (f46 f47 ?v2) ?v1)) (f15 (f46 f47 (f15 (f46 f51 ?v0) ?v2)) ?v1))))
(assert (forall ((?v0 S4) (?v1 S4) (?v2 S4)) (= (f5 (f6 f41 (f5 (f6 f48 ?v0) ?v1)) ?v2) (f5 (f6 f48 (f5 (f6 f41 ?v0) ?v2)) (f5 (f6 f41 ?v1) ?v2)))))
(assert (forall ((?v0 S2) (?v1 S2) (?v2 S2)) (= (f9 (f10 f12 (f9 (f10 f11 ?v0) ?v1)) ?v2) (f9 (f10 f11 (f9 (f10 f12 ?v0) ?v2)) (f9 (f10 f12 ?v1) ?v2)))))
(assert (forall ((?v0 S10) (?v1 S10) (?v2 S10)) (= (f15 (f46 f47 (f15 (f46 f51 ?v0) ?v1)) ?v2) (f15 (f46 f51 (f15 (f46 f47 ?v0) ?v2)) (f15 (f46 f47 ?v1) ?v2)))))
(assert (forall ((?v0 S4) (?v1 S4) (?v2 S4) (?v3 S4)) (let ((?v_0 (f6 f41 ?v0)) (?v_1 (f6 f41 ?v1))) (= (and (not (= ?v0 ?v1)) (not (= ?v2 ?v3))) (not (= (f5 (f6 f48 (f5 ?v_0 ?v2)) (f5 ?v_1 ?v3)) (f5 (f6 f48 (f5 ?v_0 ?v3)) (f5 ?v_1 ?v2))))))))
(assert (forall ((?v0 S2) (?v1 S2) (?v2 S2) (?v3 S2)) (let ((?v_0 (f10 f12 ?v0)) (?v_1 (f10 f12 ?v1))) (= (and (not (= ?v0 ?v1)) (not (= ?v2 ?v3))) (not (= (f9 (f10 f11 (f9 ?v_0 ?v2)) (f9 ?v_1 ?v3)) (f9 (f10 f11 (f9 ?v_0 ?v3)) (f9 ?v_1 ?v2))))))))
(assert (forall ((?v0 S10) (?v1 S10) (?v2 S10) (?v3 S10)) (let ((?v_0 (f46 f47 ?v0)) (?v_1 (f46 f47 ?v1))) (= (and (not (= ?v0 ?v1)) (not (= ?v2 ?v3))) (not (= (f15 (f46 f51 (f15 ?v_0 ?v2)) (f15 ?v_1 ?v3)) (f15 (f46 f51 (f15 ?v_0 ?v3)) (f15 ?v_1 ?v2))))))))
(assert (forall ((?v0 S4) (?v1 S4) (?v2 S4)) (let ((?v_0 (f6 f41 ?v0))) (= (f5 ?v_0 (f5 (f6 f48 ?v1) ?v2)) (f5 (f6 f48 (f5 ?v_0 ?v1)) (f5 ?v_0 ?v2))))))
(assert (forall ((?v0 S2) (?v1 S2) (?v2 S2)) (let ((?v_0 (f10 f12 ?v0))) (= (f9 ?v_0 (f9 (f10 f11 ?v1) ?v2)) (f9 (f10 f11 (f9 ?v_0 ?v1)) (f9 ?v_0 ?v2))))))
(assert (forall ((?v0 S10) (?v1 S10) (?v2 S10)) (let ((?v_0 (f46 f47 ?v0))) (= (f15 ?v_0 (f15 (f46 f51 ?v1) ?v2)) (f15 (f46 f51 (f15 ?v_0 ?v1)) (f15 ?v_0 ?v2))))))
(assert (forall ((?v0 S4) (?v1 S4) (?v2 S2)) (= (f3 (f20 f21 (f5 (f6 f41 ?v0) ?v1)) ?v2) (f5 (f6 f41 (f3 (f20 f21 ?v0) ?v2)) (f3 (f20 f21 ?v1) ?v2)))))
(assert (forall ((?v0 S2) (?v1 S2) (?v2 S2)) (= (f9 (f10 f42 (f9 (f10 f12 ?v0) ?v1)) ?v2) (f9 (f10 f12 (f9 (f10 f42 ?v0) ?v2)) (f9 (f10 f42 ?v1) ?v2)))))
(assert (forall ((?v0 S10) (?v1 S10) (?v2 S2)) (= (f43 (f44 f45 (f15 (f46 f47 ?v0) ?v1)) ?v2) (f15 (f46 f47 (f43 (f44 f45 ?v0) ?v2)) (f43 (f44 f45 ?v1) ?v2)))))
(assert (forall ((?v0 S4) (?v1 S2) (?v2 S2)) (let ((?v_0 (f20 f21 ?v0))) (= (f3 (f20 f21 (f3 ?v_0 ?v1)) ?v2) (f3 ?v_0 (f9 (f10 f12 ?v1) ?v2))))))
(assert (forall ((?v0 S2) (?v1 S2) (?v2 S2)) (let ((?v_0 (f10 f42 ?v0))) (= (f9 (f10 f42 (f9 ?v_0 ?v1)) ?v2) (f9 ?v_0 (f9 (f10 f12 ?v1) ?v2))))))
(assert (forall ((?v0 S10) (?v1 S2) (?v2 S2)) (let ((?v_0 (f44 f45 ?v0))) (= (f43 (f44 f45 (f43 ?v_0 ?v1)) ?v2) (f43 ?v_0 (f9 (f10 f12 ?v1) ?v2))))))
(assert (forall ((?v0 S4) (?v1 S4) (?v2 S4) (?v3 S4) (?v4 S4)) (let ((?v_0 (f6 f41 ?v0))) (=> (not (= ?v0 f57)) (=> (and (= ?v1 ?v2) (not (= ?v3 ?v4))) (not (= (f5 (f6 f48 ?v1) (f5 ?v_0 ?v3)) (f5 (f6 f48 ?v2) (f5 ?v_0 ?v4)))))))))
(assert (forall ((?v0 S2) (?v1 S2) (?v2 S2) (?v3 S2) (?v4 S2)) (let ((?v_0 (f10 f12 ?v0))) (=> (not (= ?v0 f38)) (=> (and (= ?v1 ?v2) (not (= ?v3 ?v4))) (not (= (f9 (f10 f11 ?v1) (f9 ?v_0 ?v3)) (f9 (f10 f11 ?v2) (f9 ?v_0 ?v4)))))))))
(assert (forall ((?v0 S10) (?v1 S10) (?v2 S10) (?v3 S10) (?v4 S10)) (let ((?v_0 (f46 f47 ?v0))) (=> (not (= ?v0 f53)) (=> (and (= ?v1 ?v2) (not (= ?v3 ?v4))) (not (= (f15 (f46 f51 ?v1) (f15 ?v_0 ?v3)) (f15 (f46 f51 ?v2) (f15 ?v_0 ?v4)))))))))
(assert (forall ((?v0 S10) (?v1 S10)) (= (= (f15 (f46 f51 (f15 (f46 f47 ?v0) ?v0)) (f15 (f46 f47 ?v1) ?v1)) f53) (and (= ?v0 f53) (= ?v1 f53)))))
(assert (= f57 (f49 f50 f18)))
(assert (= f53 (f15 f52 f18)))
(assert (forall ((?v0 S4) (?v1 S2)) (let ((?v_0 (f20 f21 ?v0))) (= (f5 (f6 f41 (f3 ?v_0 ?v1)) ?v0) (f3 ?v_0 (f9 f27 ?v1))))))
(assert (forall ((?v0 S2) (?v1 S2)) (let ((?v_0 (f10 f42 ?v0))) (= (f9 (f10 f12 (f9 ?v_0 ?v1)) ?v0) (f9 ?v_0 (f9 f27 ?v1))))))
(assert (forall ((?v0 S10) (?v1 S2)) (let ((?v_0 (f44 f45 ?v0))) (= (f15 (f46 f47 (f43 ?v_0 ?v1)) ?v0) (f43 ?v_0 (f9 f27 ?v1))))))
(assert (forall ((?v0 S4) (?v1 S2)) (let ((?v_0 (f20 f21 ?v0))) (= (f5 (f6 f41 ?v0) (f3 ?v_0 ?v1)) (f3 ?v_0 (f9 f27 ?v1))))))
(assert (forall ((?v0 S2) (?v1 S2)) (let ((?v_0 (f10 f42 ?v0))) (= (f9 (f10 f12 ?v0) (f9 ?v_0 ?v1)) (f9 ?v_0 (f9 f27 ?v1))))))
(assert (forall ((?v0 S10) (?v1 S2)) (let ((?v_0 (f44 f45 ?v0))) (= (f15 (f46 f47 ?v0) (f43 ?v_0 ?v1)) (f43 ?v_0 (f9 f27 ?v1))))))
(assert (forall ((?v0 S4) (?v1 S2)) (let ((?v_0 (f20 f21 ?v0))) (= (f3 ?v_0 (f9 f27 ?v1)) (f5 (f6 f41 ?v0) (f3 ?v_0 ?v1))))))
(assert (forall ((?v0 S2) (?v1 S2)) (let ((?v_0 (f10 f42 ?v0))) (= (f9 ?v_0 (f9 f27 ?v1)) (f9 (f10 f12 ?v0) (f9 ?v_0 ?v1))))))
(assert (forall ((?v0 S10) (?v1 S2)) (let ((?v_0 (f44 f45 ?v0))) (= (f43 ?v_0 (f9 f27 ?v1)) (f15 (f46 f47 ?v0) (f43 ?v_0 ?v1))))))
(assert (forall ((?v0 S4) (?v1 S2) (?v2 S2)) (let ((?v_0 (f20 f21 ?v0))) (= (f5 (f6 f41 (f3 ?v_0 ?v1)) (f3 ?v_0 ?v2)) (f3 ?v_0 (f9 (f10 f11 ?v1) ?v2))))))
(assert (forall ((?v0 S2) (?v1 S2) (?v2 S2)) (let ((?v_0 (f10 f42 ?v0))) (= (f9 (f10 f12 (f9 ?v_0 ?v1)) (f9 ?v_0 ?v2)) (f9 ?v_0 (f9 (f10 f11 ?v1) ?v2))))))
(assert (forall ((?v0 S10) (?v1 S2) (?v2 S2)) (let ((?v_0 (f44 f45 ?v0))) (= (f15 (f46 f47 (f43 ?v_0 ?v1)) (f43 ?v_0 ?v2)) (f43 ?v_0 (f9 (f10 f11 ?v1) ?v2))))))
(assert (= (f13 f14 f18) f38))
(assert (= f38 (f13 f14 f18)))
(assert (forall ((?v0 S4)) (= (f3 (f20 f21 ?v0) (f13 f14 (f15 f17 (f15 f17 f18)))) (f5 (f6 f41 (f5 (f6 f41 ?v0) ?v0)) ?v0))))
(assert (forall ((?v0 S2)) (= (f9 (f10 f42 ?v0) (f13 f14 (f15 f17 (f15 f17 f18)))) (f9 (f10 f12 (f9 (f10 f12 ?v0) ?v0)) ?v0))))
(assert (forall ((?v0 S10)) (= (f43 (f44 f45 ?v0) (f13 f14 (f15 f17 (f15 f17 f18)))) (f15 (f46 f47 (f15 (f46 f47 ?v0) ?v0)) ?v0))))
(assert (= (f13 f14 (f15 f17 (f15 f17 f18))) (f9 f27 (f9 f27 (f9 f27 f38)))))
(assert (= (f13 f14 (f15 f17 f18)) (f9 f27 f38)))
(assert (forall ((?v0 S2)) (= (f9 f27 (f9 f27 (f9 f27 ?v0))) (f9 (f10 f11 (f13 f14 (f15 f17 (f15 f17 f18)))) ?v0))))
(assert (forall ((?v0 S4)) (= (= (f3 (f20 f21 ?v0) (f13 f14 (f15 f16 (f15 f17 f18)))) f57) (= ?v0 f57))))
(assert (forall ((?v0 S10)) (= (= (f43 (f44 f45 ?v0) (f13 f14 (f15 f16 (f15 f17 f18)))) f53) (= ?v0 f53))))
(assert (= (f3 (f20 f21 f57) (f13 f14 (f15 f16 (f15 f17 f18)))) f57))
(assert (= (f43 (f44 f45 f53) (f13 f14 (f15 f16 (f15 f17 f18)))) f53))
(assert (= (f9 (f10 f42 f38) (f13 f14 (f15 f16 (f15 f17 f18)))) f38))
(assert (forall ((?v0 S4)) (= (f3 (f20 f21 ?v0) (f13 f14 (f15 f16 (f15 f17 f18)))) (f5 (f6 f41 ?v0) ?v0))))
(assert (forall ((?v0 S2)) (= (f9 (f10 f42 ?v0) (f13 f14 (f15 f16 (f15 f17 f18)))) (f9 (f10 f12 ?v0) ?v0))))
(assert (forall ((?v0 S10)) (= (f43 (f44 f45 ?v0) (f13 f14 (f15 f16 (f15 f17 f18)))) (f15 (f46 f47 ?v0) ?v0))))
(assert (forall ((?v0 S4)) (= (f5 (f6 f41 ?v0) ?v0) (f3 (f20 f21 ?v0) (f13 f14 (f15 f16 (f15 f17 f18)))))))
(assert (forall ((?v0 S2)) (= (f9 (f10 f12 ?v0) ?v0) (f9 (f10 f42 ?v0) (f13 f14 (f15 f16 (f15 f17 f18)))))))
(assert (forall ((?v0 S10)) (= (f15 (f46 f47 ?v0) ?v0) (f43 (f44 f45 ?v0) (f13 f14 (f15 f16 (f15 f17 f18)))))))
(assert (= (f13 f14 (f15 f16 (f15 f17 f18))) (f9 f27 (f9 f27 f38))))
(assert (= (f9 f27 (f9 f27 f38)) (f13 f14 (f15 f16 (f15 f17 f18)))))
(assert (let ((?v_0 (f37 f38 f23))) (= (f34 (f35 f36 f29) (f37 f38 (f9 (f10 f12 (f13 f14 (f15 f16 (f15 f17 f18)))) f23))) (f5 (f6 f48 (f34 (f35 f36 f25) ?v_0)) (f34 (f35 f36 f4) ?v_0)))))
(assert (forall ((?v0 S10) (?v1 S2)) (=> (= (f59 (f43 (f44 f45 ?v0) (f9 (f10 f12 (f13 f14 (f15 f16 (f15 f17 f18)))) ?v1)) f53) f1) (= ?v0 f53))))
(assert (forall ((?v0 S2)) (= (f39 f38 (f9 f27 ?v0)) f1)))
(assert (forall ((?v0 S3) (?v1 S2) (?v2 S2)) (let ((?v_0 (f35 f36 ?v0))) (= (f34 ?v_0 (f37 ?v1 (f9 f27 ?v2))) (ite (= (f39 ?v2 ?v1) f1) f57 (f5 (f6 f48 (f34 ?v_0 (f37 ?v1 ?v2))) (f3 ?v0 ?v2)))))))
(assert (forall ((?v0 S7) (?v1 S2) (?v2 S2)) (let ((?v_0 (f61 f62 ?v0))) (= (f60 ?v_0 (f37 ?v1 (f9 f27 ?v2))) (ite (= (f39 ?v2 ?v1) f1) f38 (f9 (f10 f11 (f60 ?v_0 (f37 ?v1 ?v2))) (f9 ?v0 ?v2)))))))
(assert (forall ((?v0 S19) (?v1 S2) (?v2 S2)) (let ((?v_0 (f64 f65 ?v0))) (= (f63 ?v_0 (f37 ?v1 (f9 f27 ?v2))) (ite (= (f39 ?v2 ?v1) f1) f53 (f15 (f46 f51 (f63 ?v_0 (f37 ?v1 ?v2))) (f43 ?v0 ?v2)))))))
(assert (= (f39 f38 (f13 f14 (f15 f16 (f15 f17 f18)))) f1))
(assert (forall ((?v0 S4)) (= (f5 (f6 f41 (f49 f50 (f15 f16 (f15 f17 f18)))) ?v0) (f5 (f6 f48 ?v0) ?v0))))
(assert (forall ((?v0 S2)) (= (f9 (f10 f12 (f13 f14 (f15 f16 (f15 f17 f18)))) ?v0) (f9 (f10 f11 ?v0) ?v0))))
(assert (forall ((?v0 S10)) (= (f15 (f46 f47 (f15 f52 (f15 f16 (f15 f17 f18)))) ?v0) (f15 (f46 f51 ?v0) ?v0))))
(assert (forall ((?v0 S4)) (= (f5 (f6 f41 (f49 f50 (f15 f16 (f15 f17 f18)))) ?v0) (f5 (f6 f48 ?v0) ?v0))))
(assert (forall ((?v0 S10)) (= (f15 (f46 f47 (f15 f52 (f15 f16 (f15 f17 f18)))) ?v0) (f15 (f46 f51 ?v0) ?v0))))
(assert (forall ((?v0 S4)) (= (f5 (f6 f41 ?v0) (f49 f50 (f15 f16 (f15 f17 f18)))) (f5 (f6 f48 ?v0) ?v0))))
(assert (forall ((?v0 S2)) (= (f9 (f10 f12 ?v0) (f13 f14 (f15 f16 (f15 f17 f18)))) (f9 (f10 f11 ?v0) ?v0))))
(assert (forall ((?v0 S10)) (= (f15 (f46 f47 ?v0) (f15 f52 (f15 f16 (f15 f17 f18)))) (f15 (f46 f51 ?v0) ?v0))))
(assert (forall ((?v0 S2)) (=> (= (f39 ?v0 f38) f1) false)))
(assert (forall ((?v0 S2)) (= (f39 ?v0 (f9 f27 ?v0)) f1)))
(assert (forall ((?v0 S2) (?v1 S2)) (=> (= (f39 ?v0 ?v1) f1) (= (f39 (f9 f27 ?v0) (f9 f27 ?v1)) f1))))
(assert (forall ((?v0 S2)) (= (f40 f38 ?v0) f1)))
(assert (forall ((?v0 S10) (?v1 S10)) (= (= (f58 (f15 f17 ?v0) (f15 f17 ?v1)) f1) (= (f58 ?v0 ?v1) f1))))
(assert (forall ((?v0 S10) (?v1 S10)) (= (= (f58 (f15 f17 ?v0) (f15 f17 ?v1)) f1) (= (f58 ?v0 ?v1) f1))))
(assert (forall ((?v0 S10)) (= (= (f58 (f15 f17 ?v0) f53) f1) (= (f58 ?v0 f53) f1))))
(assert (= (= (f58 f18 f18) f1) false))
(assert (= (= (f58 f18 f53) f1) false))
(assert (forall ((?v0 S10) (?v1 S10)) (= (= (f58 (f15 f16 ?v0) (f15 f16 ?v1)) f1) (= (f58 ?v0 ?v1) f1))))
(assert (forall ((?v0 S10) (?v1 S10)) (= (= (f58 (f15 f16 ?v0) (f15 f16 ?v1)) f1) (= (f58 ?v0 ?v1) f1))))
(assert (forall ((?v0 S10)) (= (= (f58 (f15 f16 ?v0) f53) f1) (= (f58 ?v0 f53) f1))))
(assert (forall ((?v0 S10) (?v1 S10)) (= (= (f59 (f15 f17 ?v0) (f15 f17 ?v1)) f1) (= (f59 ?v0 ?v1) f1))))
(assert (forall ((?v0 S10) (?v1 S10)) (= (= (f59 (f15 f17 ?v0) (f15 f17 ?v1)) f1) (= (f59 ?v0 ?v1) f1))))
(assert (= (= (f59 f18 f18) f1) true))
(assert (forall ((?v0 S10) (?v1 S10)) (= (= (f59 (f15 f16 ?v0) (f15 f16 ?v1)) f1) (= (f59 ?v0 ?v1) f1))))
(assert (forall ((?v0 S10) (?v1 S10)) (= (= (f59 (f15 f16 ?v0) (f15 f16 ?v1)) f1) (= (f59 ?v0 ?v1) f1))))
(assert (forall ((?v0 S2)) (= (f9 (f10 f12 f19) ?v0) ?v0)))
(assert (forall ((?v0 S2) (?v1 S2)) (= (= f19 (f9 (f10 f12 ?v0) ?v1)) (and (= ?v0 f19) (= ?v1 f19)))))
(assert (forall ((?v0 S2)) (= (f9 (f10 f12 ?v0) f19) ?v0)))
(assert (forall ((?v0 S2) (?v1 S2)) (= (= (f9 (f10 f12 ?v0) ?v1) f19) (and (= ?v0 f19) (= ?v1 f19)))))
(assert (forall ((?v0 S10)) (= (= (f58 f18 (f15 f17 ?v0)) f1) (= (f59 f18 ?v0) f1))))
(assert (forall ((?v0 S10)) (= (= (f59 (f15 f17 ?v0) f18) f1) (= (f58 ?v0 f18) f1))))
(assert (forall ((?v0 S10) (?v1 S10)) (= (= (f58 (f15 f16 ?v0) (f15 f17 ?v1)) f1) (= (f59 ?v0 ?v1) f1))))
(assert (forall ((?v0 S10) (?v1 S10)) (= (= (f58 (f15 f16 ?v0) (f15 f17 ?v1)) f1) (= (f59 ?v0 ?v1) f1))))
(assert (forall ((?v0 S10) (?v1 S10)) (= (= (f59 (f15 f17 ?v0) (f15 f16 ?v1)) f1) (= (f58 ?v0 ?v1) f1))))
(assert (forall ((?v0 S10) (?v1 S10)) (= (= (f59 (f15 f17 ?v0) (f15 f16 ?v1)) f1) (= (f58 ?v0 ?v1) f1))))
(assert (forall ((?v0 S2)) (= (f9 (f10 f12 f19) ?v0) ?v0)))
(assert (forall ((?v0 S10)) (= (f15 (f46 f47 f66) ?v0) ?v0)))
(assert (forall ((?v0 S4)) (= (f5 (f6 f41 f67) ?v0) ?v0)))
(assert (forall ((?v0 S2)) (= (f9 (f10 f12 ?v0) f19) ?v0)))
(assert (forall ((?v0 S10)) (= (f15 (f46 f47 ?v0) f66) ?v0)))
(assert (forall ((?v0 S4)) (= (f5 (f6 f41 ?v0) f67) ?v0)))
(assert (forall ((?v0 S4)) (= (f3 (f20 f21 ?v0) f19) ?v0)))
(assert (forall ((?v0 S2)) (= (f9 (f10 f42 ?v0) f19) ?v0)))
(assert (forall ((?v0 S10)) (= (f43 (f44 f45 ?v0) f19) ?v0)))
(assert (forall ((?v0 S10)) (= (= (f58 (f15 f17 ?v0) f18) f1) (= (f58 ?v0 f18) f1))))
(assert (forall ((?v0 S10) (?v1 S10)) (= (= (f58 (f15 f17 ?v0) (f15 f16 ?v1)) f1) (= (f58 ?v0 ?v1) f1))))
(assert (forall ((?v0 S10) (?v1 S10)) (= (= (f58 (f15 f17 ?v0) (f15 f16 ?v1)) f1) (= (f58 ?v0 ?v1) f1))))
(assert (forall ((?v0 S10)) (= (= (f58 f18 (f15 f16 ?v0)) f1) (= (f58 f18 ?v0) f1))))
(check-sat)
(exit)
